/* Objective function */
min: +C101 +C105 +C111 +C115 +C121 +C125 +C131 +C135 +C141 +C145 +C151 +C155 +C161 +C165 +C171 +C175 +C181
 +C185 +C191 +C195;

/* Constraints */
R1: +C1 >= 0.001;
R2: +C2 = 0;
R3: +C3 = 0;
R4: +C4 = 0;
R5: +C5 = 0;
R6: +C6 = 0;
R7: +C7 = 0;
R8: +C8 = 0;
R9: +C9 = 0;
R10: +C10 >= 0.001;
R11: +C11 >= 0.001;
R12: +C12 = 0;
R13: +C13 = 0;
R14: +C14 = 0;
R15: +C15 = 0;
R16: +C16 = 0;
R17: +C17 = 0;
R18: +C18 = 0;
R19: +C19 = 0;
R20: +C20 = 0;
R21: +C21 = 0;
R22: +C22 >= 0.001;
R23: +C23 = 0;
R24: +C24 = 0;
R25: +C25 = 0;
R26: +C26 = 0;
R27: +C27 = 0;
R28: +C28 = 0;
R29: +C29 = 0;
R30: +C30 = 0;
R31: +C31 = 0;
R32: +C32 = 0;
R33: +C33 >= 0.001;
R34: +C34 = 0;
R35: +C35 = 0;
R36: +C36 = 0;
R37: +C37 = 0;
R38: +C38 = 0;
R39: +C39 = 0;
R40: +C40 = 0;
R41: +C41 = 0;
R42: +C42 = 0;
R43: +C43 = 0;
R44: +C44 >= 0.001;
R45: +C45 >= 0.001;
R46: +C46 = 0;
R47: +C47 = 0;
R48: +C48 = 0;
R49: +C49 = 0;
R50: +C50 = 0;
R51: +C51 = 0;
R52: +C52 = 0;
R53: +C53 = 0;
R54: +C54 = 0;
R55: +C55 >= 0.001;
R56: +C56 = 0;
R57: +C57 = 0;
R58: +C58 = 0;
R59: +C59 = 0;
R60: +C60 = 0;
R61: +C61 = 0;
R62: +C62 = 0;
R63: +C63 = 0;
R64: +C64 = 0;
R65: +C65 = 0;
R66: +C66 >= 0.001;
R67: +C67 = 0;
R68: +C68 = 0;
R69: +C69 = 0;
R70: +C70 = 0;
R71: +C71 = 0;
R72: +C72 = 0;
R73: +C73 = 0;
R74: +C74 = 0;
R75: +C75 = 0;
R76: +C76 = 0;
R77: +C77 >= 0.001;
R78: +C78 = 0;
R79: +C79 = 0;
R80: +C80 = 0;
R81: +C81 = 0;
R82: +C82 = 0;
R83: +C83 = 0;
R84: +C84 = 0;
R85: +C85 = 0;
R86: +C86 = 0;
R87: +C87 = 0;
R88: +C88 >= 0.001;
R89: +C89 = 0;
R90: +C90 = 0;
R91: +C91 = 0;
R92: +C92 = 0;
R93: +C93 = 0;
R94: +C94 = 0;
R95: +C95 = 0;
R96: +C96 = 0;
R97: +C97 = 0;
R98: +C98 = 0;
R99: +C99 >= 0.001;
R100: +C100 = 0;
+C1 -C101 <= 0.5;
+C1 +C101 >= 0.5;
+C11 -C111 <= 0.5;
+C11 +C111 >= 0.5;
+C45 -C145 <= 0.5;
+C45 +C145 >= 0.5;
+C55 -C155 <= 0.5;
+C55 +C155 >= 0.5;
+C1 +C11 +C21 +C31 +C41 +C51 +C61 +C71 +C81 +C91 = 1;
+C2 +C12 +C22 +C32 +C42 +C52 +C62 +C72 +C82 +C92 = 1;
+C3 +C13 +C23 +C33 +C43 +C53 +C63 +C73 +C83 +C93 = 1;
+C4 +C14 +C24 +C34 +C44 +C54 +C64 +C74 +C84 +C94 = 1;
+C5 +C15 +C25 +C35 +C45 +C55 +C65 +C75 +C85 +C95 = 1;
+C6 +C16 +C26 +C36 +C46 +C56 +C66 +C76 +C86 +C96 = 1;
+C7 +C17 +C27 +C37 +C47 +C57 +C67 +C77 +C87 +C97 = 1;
+C8 +C18 +C28 +C38 +C48 +C58 +C68 +C78 +C88 +C98 = 1;
+C9 +C19 +C29 +C39 +C49 +C59 +C69 +C79 +C89 +C99 = 1;
+C10 +C20 +C30 +C40 +C50 +C60 +C70 +C80 +C90 +C100 = 1;
+0.85 C1 +0.01 C2 +0.01 C3 +0.01 C4 +0.07 C5 +0.01 C6 +0.01 C7 +0.01 C8 +0.01 C9 +0.01 C10 = 0.85;
+0.85 C11 +0.01 C12 +0.01 C13 +0.01 C14 +0.07 C15 +0.01 C16 +0.01 C17 +0.01 C18 +0.01 C19 +0.01 C20 = 0.01;
+0.85 C21 +0.01 C22 +0.01 C23 +0.01 C24 +0.07 C25 +0.01 C26 +0.01 C27 +0.01 C28 +0.01 C29 +0.01 C30 = 0.01;
+0.85 C31 +0.01 C32 +0.01 C33 +0.01 C34 +0.07 C35 +0.01 C36 +0.01 C37 +0.01 C38 +0.01 C39 +0.01 C40 = 0.01;
+0.85 C41 +0.01 C42 +0.01 C43 +0.01 C44 +0.07 C45 +0.01 C46 +0.01 C47 +0.01 C48 +0.01 C49 +0.01 C50 = 0.07;
+0.85 C51 +0.01 C52 +0.01 C53 +0.01 C54 +0.07 C55 +0.01 C56 +0.01 C57 +0.01 C58 +0.01 C59 +0.01 C60 = 0.01;
+0.85 C61 +0.01 C62 +0.01 C63 +0.01 C64 +0.07 C65 +0.01 C66 +0.01 C67 +0.01 C68 +0.01 C69 +0.01 C70 = 0.01;
+0.85 C71 +0.01 C72 +0.01 C73 +0.01 C74 +0.07 C75 +0.01 C76 +0.01 C77 +0.01 C78 +0.01 C79 +0.01 C80 = 0.01;
+0.85 C81 +0.01 C82 +0.01 C83 +0.01 C84 +0.07 C85 +0.01 C86 +0.01 C87 +0.01 C88 +0.01 C89 +0.01 C90 = 0.01;
+0.85 C91 +0.01 C92 +0.01 C93 +0.01 C94 +0.07 C95 +0.01 C96 +0.01 C97 +0.01 C98 +0.01 C99 +0.01 C100 = 0.01;
+0.01 C2 +0.01 C3 +0.01 C4 +0.07 C5 +0.01 C6 +0.01 C7 +0.01 C8 +0.01 C9 +0.01 C10 -0.85 C11 -0.85 C21
 -0.85 C31 -0.85 C41 -0.85 C51 -0.85 C61 -0.85 C71 -0.85 C81 -0.85 C91 = 0;
-0.01 C2 +0.85 C11 +0.01 C13 +0.01 C14 +0.07 C15 +0.01 C16 +0.01 C17 +0.01 C18 +0.01 C19 +0.01 C20 -0.01 C22
 -0.01 C32 -0.01 C42 -0.01 C52 -0.01 C62 -0.01 C72 -0.01 C82 -0.01 C92 = 0;
-0.01 C3 -0.01 C13 +0.85 C21 +0.01 C22 +0.01 C24 +0.07 C25 +0.01 C26 +0.01 C27 +0.01 C28 +0.01 C29 +0.01 C30
 -0.01 C33 -0.01 C43 -0.01 C53 -0.01 C63 -0.01 C73 -0.01 C83 -0.01 C93 = 0;
-0.01 C4 -0.01 C14 -0.01 C24 +0.85 C31 +0.01 C32 +0.01 C33 +0.07 C35 +0.01 C36 +0.01 C37 +0.01 C38 +0.01 C39
 +0.01 C40 -0.01 C44 -0.01 C54 -0.01 C64 -0.01 C74 -0.01 C84 -0.01 C94 = 0;
-0.07 C5 -0.07 C15 -0.07 C25 -0.07 C35 +0.85 C41 +0.01 C42 +0.01 C43 +0.01 C44 +0.01 C46 +0.01 C47 +0.01 C48
 +0.01 C49 +0.01 C50 -0.07 C55 -0.07 C65 -0.07 C75 -0.07 C85 -0.07 C95 = 0;
-0.01 C6 -0.01 C16 -0.01 C26 -0.01 C36 -0.01 C46 +0.85 C51 +0.01 C52 +0.01 C53 +0.01 C54 +0.07 C55 +0.01 C57
 +0.01 C58 +0.01 C59 +0.01 C60 -0.01 C66 -0.01 C76 -0.01 C86 -0.01 C96 = 0;
-0.01 C7 -0.01 C17 -0.01 C27 -0.01 C37 -0.01 C47 -0.01 C57 +0.85 C61 +0.01 C62 +0.01 C63 +0.01 C64 +0.07 C65
 +0.01 C66 +0.01 C68 +0.01 C69 +0.01 C70 -0.01 C77 -0.01 C87 -0.01 C97 = 0;
-0.01 C8 -0.01 C18 -0.01 C28 -0.01 C38 -0.01 C48 -0.01 C58 -0.01 C68 +0.85 C71 +0.01 C72 +0.01 C73 +0.01 C74
 +0.07 C75 +0.01 C76 +0.01 C77 +0.01 C79 +0.01 C80 -0.01 C88 -0.01 C98 = 0;
-0.01 C9 -0.01 C19 -0.01 C29 -0.01 C39 -0.01 C49 -0.01 C59 -0.01 C69 -0.01 C79 +0.85 C81 +0.01 C82 +0.01 C83
 +0.01 C84 +0.07 C85 +0.01 C86 +0.01 C87 +0.01 C88 +0.01 C90 -0.01 C99 = 0;
-0.01 C10 -0.01 C20 -0.01 C30 -0.01 C40 -0.01 C50 -0.01 C60 -0.01 C70 -0.01 C80 -0.01 C90 +0.85 C91 +0.01 C92
 +0.01 C93 +0.01 C94 +0.07 C95 +0.01 C96 +0.01 C97 +0.01 C98 +0.01 C99 = 0;
